100 156988
80 61 84 37 82 22 85 12 9 30 94 52 67 3 21 5 66 83 75 43 51 2 44 29 20 48 90 1 76 23 93 65 42 81 8 97 26 45 15 55 98 10 33 19 87 100 36 14 11 16 24 7 6 46 95 86 96 99 49 89 72 74 50 35 54 32 17 4 59 25 69 77 64 39 40 68 58 28 53 56 57 41 18 62 27 73 63 38 31 79 60 13 47 34 91 78 71 92 70 88 
